% demand
num_movements = 9;
loading_factor = [1050, 1050, 800, 1500, 1750, 850, 1850, 1400, 1150];
pickup_time = [0, 0, 0, 0, 0, 0, 2, 2, 2];
delivery_time = [2, 4, 4, 2, 2, 1, 4, 4, 4];

% transporter definition
total_capacity = 7000;
num_decks = 3;
capacity = [3000, 1000, 3000];

% ways out of decks
num_ways_out = 1;
paths_out = array3d(decks, ways_out, decks, [
% ways out of deck d1
2, 3, 0, 

% ways out of deck d2
3, 0, 0, 

% ways out of deck d3
0, 0, 0,	

]);

